MAX
0.0001z1 + 0.0001z2 + 0.0001z3 + 0.0001z4 + z5
SUBJECT TO
x1_1 + x1_2 + x1_3 + x1_4 + x1_5 + x1_6 + x1_7 + x1_8 + x1_9 + x1_10 = 1
x2_1 + x2_2 + x2_3 + x2_4 + x2_5 + x2_6 + x2_7 + x2_8 + x2_9 + x2_10 = 1
x3_1 + x3_2 + x3_3 + x3_4 + x3_5 + x3_6 + x3_7 + x3_8 + x3_9 + x3_10 = 1
x4_1 + x4_2 + x4_3 + x4_4 + x4_5 + x4_6 + x4_7 + x4_8 + x4_9 + x4_10 = 1
x5_1 + x5_2 + x5_3 + x5_4 + x5_5 + x5_6 + x5_7 + x5_8 + x5_9 + x5_10 = 1
x6_1 + x6_2 + x6_3 + x6_4 + x6_5 + x6_6 + x6_7 + x6_8 + x6_9 + x6_10 = 1
x7_1 + x7_2 + x7_3 + x7_4 + x7_5 + x7_6 + x7_7 + x7_8 + x7_9 + x7_10 = 1
x8_1 + x8_2 + x8_3 + x8_4 + x8_5 + x8_6 + x8_7 + x8_8 + x8_9 + x8_10 = 1
x9_1 + x9_2 + x9_3 + x9_4 + x9_5 + x9_6 + x9_7 + x9_8 + x9_9 + x9_10 = 1
x10_1 + x10_2 + x10_3 + x10_4 + x10_5 + x10_6 + x10_7 + x10_8 + x10_9 + x10_10 = 1
x1_1 + x2_1 + x3_1 + x4_1 + x5_1 + x6_1 + x7_1 + x8_1 + x9_1 + x10_1 = 1
x1_2 + x2_2 + x3_2 + x4_2 + x5_2 + x6_2 + x7_2 + x8_2 + x9_2 + x10_2 = 1
x1_3 + x2_3 + x3_3 + x4_3 + x5_3 + x6_3 + x7_3 + x8_3 + x9_3 + x10_3 = 1
x1_4 + x2_4 + x3_4 + x4_4 + x5_4 + x6_4 + x7_4 + x8_4 + x9_4 + x10_4 = 1
x1_5 + x2_5 + x3_5 + x4_5 + x5_5 + x6_5 + x7_5 + x8_5 + x9_5 + x10_5 = 1
x1_6 + x2_6 + x3_6 + x4_6 + x5_6 + x6_6 + x7_6 + x8_6 + x9_6 + x10_6 = 1
x1_7 + x2_7 + x3_7 + x4_7 + x5_7 + x6_7 + x7_7 + x8_7 + x9_7 + x10_7 = 1
x1_8 + x2_8 + x3_8 + x4_8 + x5_8 + x6_8 + x7_8 + x8_8 + x9_8 + x10_8 = 1
x1_9 + x2_9 + x3_9 + x4_9 + x5_9 + x6_9 + x7_9 + x8_9 + x9_9 + x10_9 = 1
x1_10 + x2_10 + x3_10 + x4_10 + x5_10 + x6_10 + x7_10 + x8_10 + x9_10 + x10_10 = 1
-7x1_1-16x1_2-11x1_3-19x1_4-5x1_5-14x1_6-17x1_7-9x1_8-9x1_9-3x1_10-6x2_1-7x2_2-12x2_3-20x2_4-7x2_5-13x2_6-18x2_7-14x2_8-8x2_9-10x2_10-13x3_1-6x3_2-18x3_3-2x3_4-5x3_5-1x3_6-14x3_7-8x3_8-5x3_9-2x3_10-7x4_1-1x4_2-14x4_3-8x4_4-16x4_5-19x4_6-1x4_7-9x4_8-15x4_9-7x4_10-1x5_1-12x5_2-3x5_3-14x5_4-13x5_5-14x5_6-5x5_7-12x5_8-4x5_9-20x5_10-9x6_1-15x6_2-20x6_3-6x6_4-6x6_5-14x6_6-12x6_7-1x6_8-7x6_9-19x6_10-6x7_1-3x7_2-10x7_3-18x7_4-6x7_5-20x7_6-6x7_7-16x7_8-8x7_9-12x7_10-20x8_1-13x8_2-15x8_3-1x8_4-15x8_5-14x8_6-17x8_7-5x8_8-12x8_9-16x8_10-5x9_1-13x9_2-6x9_3-2x9_4-5x9_5-2x9_6-18x9_7-14x9_8-1x9_9-6x9_10-18x10_1-14x10_2-1x10_3-11x10_4-13x10_5-14x10_6-13x10_7-7x10_8-3x10_9-11x10_10 - z1 = 0
-20x1_1-3x1_2-9x1_3-17x1_4-12x1_5-16x1_6-19x1_7-1x1_8-18x1_9-14x1_10-7x2_1-7x2_2-12x2_3-9x2_4-18x2_5-14x2_6-17x2_7-9x2_8-17x2_9-16x2_10-3x3_1-20x3_2-16x3_3-7x3_4-20x3_5-15x3_6-6x3_7-20x3_8-6x3_9-4x3_10-16x4_1-11x4_2-9x4_3-3x4_4-14x4_5-7x4_6-20x4_7-8x4_8-8x4_9-9x4_10-13x5_1-6x5_2-4x5_3-19x5_4-17x5_5-16x5_6-18x5_7-7x5_8-18x5_9-6x5_10-10x6_1-7x6_2-11x6_3-5x6_4-1x6_5-20x6_6-9x6_7-5x6_8-19x6_9-20x6_10-16x7_1-8x7_2-13x7_3-8x7_4-2x7_5-6x7_6-19x7_7-15x7_8-16x7_9-5x7_10-10x8_1-1x8_2-5x8_3-3x8_4-10x8_5-14x8_6-9x8_7-18x8_8-8x8_9-9x8_10-9x9_1-3x9_2-4x9_3-5x9_4-19x9_5-20x9_6-11x9_7-7x9_8-7x9_9-9x9_10-20x10_1-11x10_2-20x10_3-13x10_4-8x10_5-15x10_6-4x10_7-5x10_8-19x10_9-15x10_10 - z2 = 0
-2x1_1-20x1_2-11x1_3-12x1_4-13x1_5-9x1_6-10x1_7-6x1_8-13x1_9-6x1_10-19x2_1-9x2_2-1x2_3-20x2_4-1x2_5-15x2_6-15x2_7-11x2_8-15x2_9-13x2_10-9x3_1-4x3_2-20x3_3-18x3_4-13x3_5-11x3_6-4x3_7-11x3_8-20x3_9-20x3_10-7x4_1-12x4_2-10x4_3-15x4_4-8x4_5-20x4_6-16x4_7-15x4_8-14x4_9-11x4_10-15x5_1-17x5_2-6x5_3-12x5_4-18x5_5-5x5_6-16x5_7-2x5_8-13x5_9-13x5_10-7x6_1-15x6_2-15x6_3-20x6_4-12x6_5-17x6_6-6x6_7-14x6_8-6x6_9-18x6_10-4x7_1-5x7_2-2x7_3-19x7_4-17x7_5-19x7_6-11x7_7-12x7_8-9x7_9-5x7_10-6x8_1-2x8_2-15x8_3-8x8_4-14x8_5-9x8_6-16x8_7-6x8_8-2x8_9-13x8_10-6x9_1-18x9_2-20x9_3-11x9_4-12x9_5-20x9_6-18x9_7-18x9_8-7x9_9-17x9_10-1x10_1-15x10_2-17x10_3-7x10_4-7x10_5-14x10_6-6x10_7-6x10_8-11x10_9-9x10_10 - z3 = 0
-1x1_1-1x1_2-5x1_3-1x1_4-19x1_5-1x1_6-3x1_7-16x1_8-16x1_9-7x1_10-1x2_1-10x2_2-17x2_3-16x2_4-12x2_5-13x2_6-1x2_7-3x2_8-17x2_9-12x2_10-19x3_1-6x3_2-15x3_3-17x3_4-18x3_5-7x3_6-13x3_7-13x3_8-16x3_9-17x3_10-3x4_1-4x4_2-2x4_3-17x4_4-13x4_5-5x4_6-8x4_7-10x4_8-20x4_9-17x4_10-13x5_1-20x5_2-15x5_3-13x5_4-10x5_5-1x5_6-18x5_7-12x5_8-20x5_9-3x5_10-1x6_1-19x6_2-18x6_3-18x6_4-13x6_5-10x6_6-16x6_7-11x6_8-16x6_9-10x6_10-3x7_1-10x7_2-11x7_3-6x7_4-11x7_5-5x7_6-13x7_7-18x7_8-3x7_9-20x7_10-5x8_1-18x8_2-4x8_3-9x8_4-7x8_5-19x8_6-9x8_7-16x8_8-19x8_9-10x8_10-10x9_1-2x9_2-12x9_3-10x9_4-1x9_5-6x9_6-15x9_7-16x9_8-20x9_9-1x9_10-9x10_1-11x10_2-8x10_3-12x10_4-17x10_5-8x10_6-15x10_7-18x10_8-14x10_9-1x10_10 - z4 = 0
-16x1_1-20x1_2-2x1_3-4x1_4-19x1_5-5x1_6-1x1_7-10x1_8-10x1_9-16x1_10-11x2_1-13x2_2-11x2_3-17x2_4-13x2_5-3x2_6-2x2_7-6x2_8-7x2_9-12x2_10-9x3_1-17x3_2-2x3_3-20x3_4-5x3_5-6x3_6-12x3_7-19x3_8-2x3_9-6x3_10-9x4_1-18x4_2-16x4_3-5x4_4-5x4_5-20x4_6-3x4_7-20x4_8-18x4_9-4x4_10-9x5_1-1x5_2-19x5_3-8x5_4-8x5_5-20x5_6-11x5_7-7x5_8-20x5_9-6x5_10-19x6_1-17x6_2-11x6_3-10x6_4-5x6_5-11x6_6-7x6_7-15x6_8-17x6_9-2x6_10-9x7_1-14x7_2-15x7_3-12x7_4-19x7_5-8x7_6-4x7_7-9x7_8-20x7_9-16x7_10-20x8_1-12x8_2-12x8_3-19x8_4-11x8_5-12x8_6-11x8_7-9x8_8-5x8_9-17x8_10-6x9_1-16x9_2-11x9_3-19x9_4-19x9_5-6x9_6-3x9_7-8x9_8-9x9_9-11x9_10-9x10_1-17x10_2-13x10_3-12x10_4-2x10_5-1x10_6-5x10_7-1x10_8-16x10_9-20x10_10 - z5 = 0
BOUNDS
z1 free
z2 free
z3 free
z4 free
z5 free
BINARIES
x1_1
x1_2
x1_3
x1_4
x1_5
x1_6
x1_7
x1_8
x1_9
x1_10
x2_1
x2_2
x2_3
x2_4
x2_5
x2_6
x2_7
x2_8
x2_9
x2_10
x3_1
x3_2
x3_3
x3_4
x3_5
x3_6
x3_7
x3_8
x3_9
x3_10
x4_1
x4_2
x4_3
x4_4
x4_5
x4_6
x4_7
x4_8
x4_9
x4_10
x5_1
x5_2
x5_3
x5_4
x5_5
x5_6
x5_7
x5_8
x5_9
x5_10
x6_1
x6_2
x6_3
x6_4
x6_5
x6_6
x6_7
x6_8
x6_9
x6_10
x7_1
x7_2
x7_3
x7_4
x7_5
x7_6
x7_7
x7_8
x7_9
x7_10
x8_1
x8_2
x8_3
x8_4
x8_5
x8_6
x8_7
x8_8
x8_9
x8_10
x9_1
x9_2
x9_3
x9_4
x9_5
x9_6
x9_7
x9_8
x9_9
x9_10
x10_1
x10_2
x10_3
x10_4
x10_5
x10_6
x10_7
x10_8
x10_9
x10_10
END